
Gurobi 11.0.3 (linux64) logging started Mon Dec 15 16:18:40 2025

Set parameter LogFile to value "./log/train/IS_900_5/IS_4.lp.log"
Set parameter TimeLimit to value 3600
Gurobi Optimizer version 11.0.3 build v11.0.3rc0 (linux64 - "Ubuntu 22.04.5 LTS")

CPU model: AMD Ryzen 9 9900X 12-Core Processor, instruction set [SSE2|AVX|AVX2|AVX512]
Thread count: 12 physical cores, 24 logical processors, using up to 24 threads

Optimize a model with 4626 rows, 900 columns and 9072 nonzeros
Model fingerprint: 0x8f633415
Variable types: 0 continuous, 900 integer (900 binary)
Coefficient statistics:
  Matrix range     [1e+00, 1e+00]
  Objective range  [1e+00, 1e+00]
  Bounds range     [1e+00, 1e+00]
  RHS range        [1e+00, 1e+00]
Found heuristic solution: objective 203.0000000
Presolve removed 966 rows and 0 columns
Presolve time: 0.01s
Presolved: 3660 rows, 900 columns, 8035 nonzeros
Variable types: 0 continuous, 900 integer (900 binary)

Root relaxation: objective 4.140000e+02, 1464 iterations, 0.03 seconds (0.07 work units)

    Nodes    |    Current Node    |     Objective Bounds      |     Work
 Expl Unexpl |  Obj  Depth IntInf | Incumbent    BestBd   Gap | It/Node Time

     0     0  414.00000    0  778  203.00000  414.00000   104%     -    0s
H    0     0                     345.0000000  414.00000  20.0%     -    0s
H    0     0                     346.0000000  414.00000  19.7%     -    0s
     0     0  406.98069    0  888  346.00000  406.98069  17.6%     -    0s
H    0     0                     363.0000000  406.98069  12.1%     -    0s
H    0     0                     366.0000000  406.98069  11.2%     -    0s
     0     0  406.97887    0  887  366.00000  406.97887  11.2%     -    0s
     0     0  402.13457    0  887  366.00000  402.13457  9.87%     -    0s
H    0     0                     367.0000000  402.13457  9.57%     -    0s
     0     0  402.06194    0  882  367.00000  402.06194  9.55%     -    0s
     0     0  402.05074    0  887  367.00000  402.05074  9.55%     -    0s
     0     0  402.04925    0  886  367.00000  402.04925  9.55%     -    0s
     0     0  398.58596    0  889  367.00000  398.58596  8.61%     -    0s
     0     0  398.20215    0  890  367.00000  398.20215  8.50%     -    0s
     0     0  398.13062    0  888  367.00000  398.13062  8.48%     -    0s
     0     0  398.11899    0  890  367.00000  398.11899  8.48%     -    0s
     0     0  398.11594    0  890  367.00000  398.11594  8.48%     -    0s
     0     0  396.64488    0  883  367.00000  396.64488  8.08%     -    0s
H    0     0                     368.0000000  396.64488  7.78%     -    0s
     0     0  396.57576    0  885  368.00000  396.57576  7.77%     -    0s
     0     0  396.55193    0  886  368.00000  396.55193  7.76%     -    0s
     0     0  396.54768    0  884  368.00000  396.54768  7.76%     -    0s
     0     0  395.41645    0  882  368.00000  395.41645  7.45%     -    1s
     0     0  395.28100    0  885  368.00000  395.28100  7.41%     -    1s
     0     0  395.25383    0  888  368.00000  395.25383  7.41%     -    1s
     0     0  395.24660    0  887  368.00000  395.24660  7.40%     -    1s
     0     0  395.24587    0  887  368.00000  395.24587  7.40%     -    1s
     0     0  394.50597    0  883  368.00000  394.50597  7.20%     -    1s
     0     0  394.39339    0  887  368.00000  394.39339  7.17%     -    1s
     0     0  394.38334    0  887  368.00000  394.38334  7.17%     -    1s
     0     0  394.38056    0  887  368.00000  394.38056  7.17%     -    1s
     0     0  393.88716    0  885  368.00000  393.88716  7.03%     -    1s
     0     0  393.83139    0  888  368.00000  393.83139  7.02%     -    1s
     0     0  393.79548    0  889  368.00000  393.79548  7.01%     -    1s
     0     0  393.78851    0  890  368.00000  393.78851  7.01%     -    1s
     0     0  393.59689    0  884  368.00000  393.59689  6.96%     -    1s
     0     0  393.54855    0  884  368.00000  393.54855  6.94%     -    1s
     0     0  393.54031    0  887  368.00000  393.54031  6.94%     -    1s
     0     0  393.53847    0  888  368.00000  393.53847  6.94%     -    1s
     0     0  393.28983    0  886  368.00000  393.28983  6.87%     -    1s
     0     0  393.18423    0  886  368.00000  393.18423  6.84%     -    1s
     0     0  393.17376    0  888  368.00000  393.17376  6.84%     -    1s
     0     0  393.16823    0  888  368.00000  393.16823  6.84%     -    1s
     0     0  392.87261    0  889  368.00000  392.87261  6.76%     -    1s
     0     0  392.82233    0  886  368.00000  392.82233  6.75%     -    1s
     0     0  392.79995    0  889  368.00000  392.79995  6.74%     -    1s
     0     0  392.78515    0  890  368.00000  392.78515  6.74%     -    1s
     0     0  392.78189    0  893  368.00000  392.78189  6.73%     -    1s
     0     0  392.65173    0  890  368.00000  392.65173  6.70%     -    1s
     0     0  392.62296    0  891  368.00000  392.62296  6.69%     -    1s
     0     0  392.61851    0  892  368.00000  392.61851  6.69%     -    1s
     0     0  392.41585    0  887  368.00000  392.41585  6.63%     -    1s
     0     0  392.37485    0  891  368.00000  392.37485  6.62%     -    1s
     0     0  392.37155    0  890  368.00000  392.37155  6.62%     -    1s
     0     0  392.24776    0  892  368.00000  392.24776  6.59%     -    1s
     0     0  392.23067    0  893  368.00000  392.23067  6.58%     -    1s
     0     0  392.22449    0  891  368.00000  392.22449  6.58%     -    1s
     0     0  392.09691    0  893  368.00000  392.09691  6.55%     -    2s
H    0     0                     370.0000000  392.09691  5.97%     -    2s
     0     0  392.07611    0  893  370.00000  392.07611  5.97%     -    2s
     0     0  392.07405    0  891  370.00000  392.07405  5.97%     -    2s
     0     0  391.91309    0  893  370.00000  391.91309  5.92%     -    2s
     0     0  391.85048    0  892  370.00000  391.85048  5.91%     -    2s
     0     0  391.84291    0  892  370.00000  391.84291  5.90%     -    2s
     0     0  391.77690    0  888  370.00000  391.77690  5.89%     -    2s
     0     0  391.74741    0  889  370.00000  391.74741  5.88%     -    2s
     0     0  391.74377    0  891  370.00000  391.74377  5.88%     -    2s
     0     0  391.55557    0  888  370.00000  391.55557  5.83%     -    2s
     0     0  391.52660    0  888  370.00000  391.52660  5.82%     -    2s
     0     0  391.52478    0  888  370.00000  391.52478  5.82%     -    2s
     0     0  391.31406    0  888  370.00000  391.31406  5.76%     -    2s
     0     0  391.28477    0  887  370.00000  391.28477  5.75%     -    2s
     0     0  391.27449    0  887  370.00000  391.27449  5.75%     -    2s
     0     0  391.27099    0  888  370.00000  391.27099  5.75%     -    2s
     0     0  391.19555    0  888  370.00000  391.19555  5.73%     -    2s
     0     0  391.18374    0  889  370.00000  391.18374  5.73%     -    2s
     0     0  391.18211    0  889  370.00000  391.18211  5.72%     -    2s
     0     0  391.15540    0  891  370.00000  391.15540  5.72%     -    2s
     0     0  391.15540    0  890  370.00000  391.15540  5.72%     -    2s
H    0     0                     371.0000000  391.15540  5.43%     -    2s
     0     2  391.15540    0  888  371.00000  391.15540  5.43%     -    2s
H   84    82                     372.0000000  390.85487  5.07%   892    4s
   103    86  384.77298    9  845  372.00000  390.85487  5.07%   795    5s
H  275   149                     373.0000000  390.85487  4.79%   549    6s
  1047   670  379.05898   29  784  373.00000  390.50012  4.69%   397   10s
  2403  1525  382.80559   24  890  373.00000  389.61146  4.45%   369   16s
  2413  1532  375.84632   24  892  373.00000  389.61146  4.45%   367   20s
  2421  1537  374.94028   20  889  373.00000  389.61146  4.45%   366   25s
  2626  1699  387.44241   20  877  373.00000  388.53576  4.17%   405   38s
  2923  1942  386.81062   25  865  373.00000  388.53576  4.17%   444   40s
  4945  2886  384.15832   42  856  373.00000  388.53576  4.17%   443   45s
  7479  4082  381.53566   56  838  373.00000  388.53576  4.17%   420   50s
 10629  6008     cutoff   93       373.00000  387.46734  3.88%   401   55s
 14374  8923  381.12107   24  825  373.00000  385.49173  3.35%   371   60s
 18839 11628     cutoff   22       373.00000  385.08824  3.24%   361   65s
 23311 14660  376.01429   30  779  373.00000  384.78198  3.16%   356   70s

Cutting planes:
  Gomory: 5
  Flow cover: 2
  Zero half: 413
  RLT: 204
  BQP: 48

Explored 25965 nodes (9145267 simplex iterations) in 71.53 seconds (211.11 work units)
Thread count was 24 (of 24 available processors)

Solution count 10: 373 372 371 ... 345

Solve interrupted
Best objective 3.730000000000e+02, best bound 3.840000000000e+02, gap 2.9491%

User-callback calls 61115, time in user-callback 0.05 sec
